20 43
2 5 7 9 14 17 19
7 8 16 18
0 4 7 10 12 16
9 10 13 17
2 11 12
0 10 12 19
7 8 9
0 1 2 6 10 13
1 6 14 16
0 3 6 11 13
2 3 5 7 12 13 16
4 9 14 15
2 4 5 10
3 7 9 10 14 18
0 8 11 13 18
11 17
1 2 8 10
0 3 15
1 13 14
0 5
